Total weight: 1227.3
Route 1: 0 27 28 23 67 41 5 83 8 18 60 84 17 100 93 89 0 
Route 2: 0 50 33 1 31 7 48 47 36 19 62 88 52 40 21 73 72 22 75 56 74 2 58 0 
Route 3: 0 6 34 29 69 30 90 49 46 45 82 10 20 32 66 35 65 70 76 77 80 12 26 0 
Route 4: 0 63 11 64 71 9 51 81 78 79 3 68 54 24 55 4 39 25 53 0 
Route 5: 0 94 96 59 92 42 15 14 38 44 16 61 86 99 95 87 91 85 98 37 57 43 97 13 0 
